Total weight: 1486.7079058068516
Route 1: 0 94 95 87 57 2 13 0 
Route 2: 0 27 69 1 50 53 97 37 98 59 0 
Route 3: 0 18 84 45 17 85 93 0 
Route 4: 0 28 12 68 80 3 77 0 
Route 5: 0 40 73 22 75 74 72 21 58 0 
Route 6: 0 92 100 38 86 16 61 5 4 56 0 
Route 7: 0 62 10 90 32 70 0 
Route 8: 0 52 7 19 48 82 8 46 83 60 0 
Route 9: 0 76 33 81 79 0 
Route 10: 0 43 15 41 23 55 24 0 
Route 11: 0 54 29 78 34 35 0 
Route 12: 0 47 36 49 64 30 0 
Route 13: 0 42 14 44 91 0 
Route 14: 0 51 65 71 9 66 20 0 
Route 15: 0 26 39 67 25 0 
Route 16: 0 31 63 11 88 0 
Route 17: 0 96 99 6 89 0 
